
Gurobi 10.0.1 (linux64) logging started Sun Nov 26 15:45:18 2023

Set parameter LogFile to value "ArtificialInstance/ExperimentV2/S4T3K1/BaSp/gurobi91.txt"
Gurobi Optimizer version 10.0.1 build v10.0.1rc0 (linux64)

CPU model: AMD EPYC 7H12 64-Core Processor, instruction set [SSE2|AVX|AVX2]
Thread count: 128 physical cores, 128 logical processors, using up to 32 threads

Academic license 656792 - for non-commercial use only - registered to b.___@student.vu.nl
Optimize a model with 1370 rows, 2000 columns and 6240 nonzeros
Model fingerprint: 0xcb31cdfc
Variable types: 0 continuous, 2000 integer (2000 binary)
Coefficient statistics:
  Matrix range     [1e+00, 1e+00]
  Objective range  [9e-01, 2e+01]
  Bounds range     [1e+00, 1e+00]
  RHS range        [1e+00, 1e+00]
Found heuristic solution: objective 641.0328958
Presolve time: 0.01s
Presolved: 1370 rows, 2000 columns, 6240 nonzeros
Variable types: 0 continuous, 2000 integer (2000 binary)

Root relaxation: objective 4.263106e+01, 1116 iterations, 0.02 seconds (0.02 work units)

    Nodes    |    Current Node    |     Objective Bounds      |     Work
 Expl Unexpl |  Obj  Depth IntInf | Incumbent    BestBd   Gap | It/Node Time

     0     0   42.63106    0  300  641.03290   42.63106  93.3%     -    0s
H    0     0                     188.3195520   42.63106  77.4%     -    0s
H    0     0                     184.2002863   42.63106  76.9%     -    0s
H    0     0                      88.4890146   42.63106  51.8%     -    0s
H    0     0                      75.7683407   46.37619  38.8%     -    0s
     0     0   46.37619    0  451   75.76834   46.37619  38.8%     -    0s
H    0     0                      68.9562555   46.37619  32.7%     -    0s
H    0     0                      64.9591755   46.37619  28.6%     -    0s
     0     0   51.55165    0  432   64.95918   51.55165  20.6%     -    0s
     0     0   51.60920    0  432   64.95918   51.60920  20.6%     -    0s
     0     0   53.02086    0  394   64.95918   53.02086  18.4%     -    0s
     0     0   53.15957    0  452   64.95918   53.15957  18.2%     -    0s
     0     0   53.16089    0  464   64.95918   53.16089  18.2%     -    0s
H    0     0                      64.7075708   53.16089  17.8%     -    0s
H    0     0                      63.8041859   53.54406  16.1%     -    0s
H    0     0                      63.4700710   53.54406  15.6%     -    0s
     0     0   53.54406    0  427   63.47007   53.54406  15.6%     -    0s
     0     0   53.57013    0  458   63.47007   53.57013  15.6%     -    0s
     0     0   53.57264    0  456   63.47007   53.57264  15.6%     -    0s
     0     0   53.96201    0  262   63.47007   53.96201  15.0%     -    0s
H    0     0                      61.4045935   53.96201  12.1%     -    0s
     0     0   54.09451    0  448   61.40459   54.09451  11.9%     -    0s
     0     0   54.12099    0  447   61.40459   54.12099  11.9%     -    0s
     0     0   54.12207    0  450   61.40459   54.12207  11.9%     -    0s
H    0     0                      61.3647044   55.06451  10.3%     -    0s
     0     0   55.06451    0  432   61.36470   55.06451  10.3%     -    0s
     0     0   55.23898    0  454   61.36470   55.23898  10.0%     -    0s
     0     0   55.26098    0  464   61.36470   55.26098  9.95%     -    0s
     0     0   55.28032    0  448   61.36470   55.28032  9.92%     -    0s
     0     0   55.28149    0  459   61.36470   55.28149  9.91%     -    0s
     0     0   55.51154    0  489   61.36470   55.51154  9.54%     -    0s
     0     0   55.51349    0  488   61.36470   55.51349  9.54%     -    0s
H    0     0                      60.8330615   56.12708  7.74%     -    0s
     0     0   56.12708    0  467   60.83306   56.12708  7.74%     -    0s
     0     0   56.18752    0  514   60.83306   56.18752  7.64%     -    0s
     0     0   56.18912    0  513   60.83306   56.18912  7.63%     -    0s
H    0     0                      59.7073039   56.28950  5.72%     -    0s
H    0     0                      59.4430774   56.28950  5.31%     -    0s
     0     0   56.28950    0  425   59.44308   56.28950  5.31%     -    0s
H    0     0                      58.0203246   56.28950  2.98%     -    0s
     0     0   56.29835    0  452   58.02032   56.29835  2.97%     -    0s
     0     0   56.29839    0  455   58.02032   56.29839  2.97%     -    0s
     0     0   56.35410    0  527   58.02032   56.35410  2.87%     -    0s
     0     0   56.35410    0  281   58.02032   56.35410  2.87%     -    0s
     0     0   56.35410    0  401   58.02032   56.35410  2.87%     -    1s
     0     0   56.35410    0  329   58.02032   56.35410  2.87%     -    1s
     0     0   56.35410    0  411   58.02032   56.35410  2.87%     -    1s
     0     0   56.35410    0  414   58.02032   56.35410  2.87%     -    1s
     0     0   56.57379    0  419   58.02032   56.57379  2.49%     -    1s
     0     0   56.63274    0  427   58.02032   56.63274  2.39%     -    1s
     0     0   56.63374    0  429   58.02032   56.63374  2.39%     -    1s
     0     0   56.78974    0  407   58.02032   56.78974  2.12%     -    1s
     0     0   56.79155    0  429   58.02032   56.79155  2.12%     -    1s
     0     0   56.85490    0  389   58.02032   56.85490  2.01%     -    1s
     0     0   56.85490    0  369   58.02032   56.85490  2.01%     -    1s
     0     0   56.85490    0  261   58.02032   56.85490  2.01%     -    1s
     0     0   56.85490    0  405   58.02032   56.85490  2.01%     -    1s
     0     0   56.85490    0  348   58.02032   56.85490  2.01%     -    1s
     0     0   56.85490    0  346   58.02032   56.85490  2.01%     -    1s
     0     0   56.85490    0  349   58.02032   56.85490  2.01%     -    1s
     0     0   56.85490    0  349   58.02032   56.85490  2.01%     -    1s
     0     0   56.90793    0  336   58.02032   56.90793  1.92%     -    1s
     0     0   56.94072    0  324   58.02032   56.94072  1.86%     -    1s
     0     0   57.02727    0  327   58.02032   57.02727  1.71%     -    1s
     0     0   57.03003    0  372   58.02032   57.03003  1.71%     -    1s
     0     0   57.03013    0  369   58.02032   57.03013  1.71%     -    1s
     0     0   57.03013    0  355   58.02032   57.03013  1.71%     -    1s
     0     2   57.03013    0  354   58.02032   57.03013  1.71%     -    1s

Cutting planes:
  Gomory: 8
  MIR: 1
  Zero half: 53
  RLT: 16

Explored 11 nodes (12736 simplex iterations) in 1.89 seconds (1.02 work units)
Thread count was 32 (of 128 available processors)

Solution count 10: 58.0203 59.4431 59.7073 ... 64.9592

Optimal solution found (tolerance 1.00e-04)
Best objective 5.802032455335e+01, best bound 5.802032455335e+01, gap 0.0000%
